Route 1: 0 65 33 50 28 6 19 55 0
Route 2: 0 47 7 64 59 94 29 67 0
Route 3: 0 41 1 61 77 53 86 88 68 73 0
Route 4: 0 71 11 44 63 26 54 72 92 52 76 0
Route 5: 0 9 14 31 57 40 36 66 49 22 70 93 27 0
Route 6: 0 45 15 83 23 8 80 12 20 85 0
Route 7: 0 97 69 89 84 13 39 0
Route 8: 0 95 21 43 18 60 10 24 0
Route 9: 0 16 99 51 87 4 30 46 17 42 96 98 38 0
Route 10: 0 79 82 56 81 37 58 91 90 100 25 3 0
Route 11: 0 78 32 34 48 74 2 5 75 35 62 0
